
Gurobi 6.5.2 (linux64) logging started Wed Aug 31 10:35:29 2016

Optimize a model with 101 rows, 908 columns and 1927 nonzeros
Coefficient statistics:
  Matrix range    [1e+00, 2e+00]
  Objective range [1e+00, 1e+02]
  Bounds range    [1e+00, 1e+00]
  RHS range       [1e+00, 1e+00]
Found heuristic solution: objective 2399
Presolve removed 30 rows and 3 columns
Presolve time: 0.00s
Presolved: 71 rows, 905 columns, 1826 nonzeros
Variable types: 0 continuous, 905 integer (905 binary)

Root relaxation: objective 5.900000e+02, 73 iterations, 0.00 seconds

    Nodes    |    Current Node    |     Objective Bounds      |     Work
 Expl Unexpl |  Obj  Depth IntInf | Incumbent    BestBd   Gap | It/Node Time

     0     0  590.00000    0    6 2399.00000  590.00000  75.4%     -    0s
H    0     0                     632.0000000  590.00000  6.65%     -    0s
H    0     0                     630.0000000  590.00000  6.35%     -    0s
H    0     0                     625.0000000  590.00000  5.60%     -    0s
H    0     0                     596.0000000  590.00000  1.01%     -    0s
     0     0  592.00000    0    8  596.00000  592.00000  0.67%     -    0s
     0     0  592.00000    0    5  596.00000  592.00000  0.67%     -    0s
     0     0  593.00000    0    8  596.00000  593.00000  0.50%     -    0s
H    0     0                     594.0000000  593.00000  0.17%     -    0s

Cutting planes:
  Gomory: 4
  Clique: 1
  Zero half: 3

Explored 0 nodes (134 simplex iterations) in 0.02 seconds
Thread count was 8 (of 8 available processors)

Optimal solution found (tolerance 1.00e-04)
Best objective 5.940000000000e+02, best bound 5.940000000000e+02, gap 0.0%
